14° run output:
{
    "Function": "euclidA300.tsp",
    "Problem dimension": [
        226,
        207,
        199,
        241,
        77,
        280,
        1,
        255,
        282,
        27,
        215,
        106,
        38,
        100,
        22,
        156,
        4,
        269,
        33,
        131,
        45,
        93,
        136,
        165,
        229,
        256,
        2,
        297,
        147,
        24,
        186,
        5,
        173,
        85,
        36,
        205,
        98,
        73,
        190,
        239,
        112,
        149,
        8,
        18,
        40,
        214,
        62,
        139,
        3,
        110,
        25,
        293,
        64,
        17,
        211,
        70,
        221,
        182,
        162,
        99,
        163,
        72,
        91,
        86,
        286,
        117,
        154,
        281,
        268,
        295,
        253,
        83,
        248,
        174,
        272,
        206,
        127,
        217,
        237,
        46,
        264,
        216,
        138,
        252,
        76,
        6,
        54,
        49,
        124,
        19,
        194,
        137,
        41,
        150,
        95,
        153,
        0,
        158,
        135,
        57,
        290,
        161,
        238,
        193,
        114,
        278,
        287,
        180,
        148,
        152,
        96,
        26,
        201,
        35,
        160,
        34,
        274,
        191,
        166,
        132,
        289,
        188,
        71,
        261,
        56,
        267,
        179,
        285,
        145,
        107,
        11,
        113,
        58,
        63,
        275,
        44,
        48,
        155,
        89,
        222,
        177,
        75,
        9,
        116,
        189,
        141,
        88,
        178,
        66,
        123,
        220,
        78,
        292,
        266,
        16,
        298,
        187,
        176,
        228,
        29,
        218,
        43,
        175,
        101,
        203,
        28,
        244,
        299,
        42,
        236,
        183,
        242,
        130,
        168,
        12,
        65,
        118,
        142,
        134,
        171,
        247,
        69,
        47,
        7,
        104,
        209,
        61,
        111,
        159,
        74,
        125,
        129,
        90,
        225,
        79,
        265,
        192,
        224,
        102,
        230,
        39,
        279,
        81,
        212,
        80,
        198,
        270,
        271,
        30,
        167,
        53,
        31,
        82,
        245,
        262,
        55,
        169,
        151,
        227,
        240,
        276,
        254,
        243,
        59,
        231,
        94,
        133,
        143,
        200,
        219,
        288,
        170,
        97,
        181,
        204,
        128,
        233,
        277,
        140,
        185,
        259,
        250,
        294,
        196,
        197,
        37,
        52,
        20,
        223,
        92,
        67,
        103,
        10,
        115,
        13,
        232,
        235,
        68,
        120,
        23,
        87,
        164,
        202,
        258,
        246,
        172,
        21,
        213,
        296,
        105,
        51,
        121,
        234,
        257,
        144,
        32,
        146,
        108,
        263,
        251,
        273,
        208,
        50,
        126,
        14,
        260,
        291,
        119,
        283,
        249,
        157,
        184,
        60,
        122,
        109,
        15,
        195,
        210,
        84,
        284
    ],
    "Global Optimum": 0,
    "Algorithm": "Genetic algorithm",
    "Parameters": {
        "population": 30,
        "offspring": 30,
        "mutation probability": 0.0033333333333333335,
        "crossover probability": 0.9
    },
    "Fitness": 322590,
    "Solution": [
        226,
        207,
        199,
        241,
        77,
        280,
        1,
        255,
        282,
        27,
        215,
        106,
        38,
        100,
        22,
        156,
        4,
        269,
        33,
        131,
        45,
        93,
        136,
        165,
        229,
        256,
        2,
        297,
        147,
        24,
        186,
        5,
        173,
        85,
        36,
        205,
        98,
        73,
        190,
        239,
        112,
        149,
        8,
        18,
        40,
        214,
        62,
        139,
        3,
        110,
        25,
        293,
        64,
        17,
        211,
        70,
        221,
        182,
        162,
        99,
        163,
        72,
        91,
        86,
        286,
        117,
        154,
        281,
        268,
        295,
        253,
        83,
        248,
        174,
        272,
        206,
        127,
        217,
        237,
        46,
        264,
        216,
        138,
        252,
        76,
        6,
        54,
        49,
        124,
        19,
        194,
        137,
        41,
        150,
        95,
        153,
        0,
        158,
        135,
        57,
        290,
        161,
        238,
        193,
        114,
        278,
        287,
        180,
        148,
        152,
        96,
        26,
        201,
        35,
        160,
        34,
        274,
        191,
        166,
        132,
        289,
        188,
        71,
        261,
        56,
        267,
        179,
        285,
        145,
        107,
        11,
        113,
        58,
        63,
        275,
        44,
        48,
        155,
        89,
        222,
        177,
        75,
        9,
        116,
        189,
        141,
        88,
        178,
        66,
        123,
        220,
        78,
        292,
        266,
        16,
        298,
        187,
        176,
        228,
        29,
        218,
        43,
        175,
        101,
        203,
        28,
        244,
        299,
        42,
        236,
        183,
        242,
        130,
        168,
        12,
        65,
        118,
        142,
        134,
        171,
        247,
        69,
        47,
        7,
        104,
        209,
        61,
        111,
        159,
        74,
        125,
        129,
        90,
        225,
        79,
        265,
        192,
        224,
        102,
        230,
        39,
        279,
        81,
        212,
        80,
        198,
        270,
        271,
        30,
        167,
        53,
        31,
        82,
        245,
        262,
        55,
        169,
        151,
        227,
        240,
        276,
        254,
        243,
        59,
        231,
        94,
        133,
        143,
        200,
        219,
        288,
        170,
        97,
        181,
        204,
        128,
        233,
        277,
        140,
        185,
        259,
        250,
        294,
        196,
        197,
        37,
        52,
        20,
        223,
        92,
        67,
        103,
        10,
        115,
        13,
        232,
        235,
        68,
        120,
        23,
        87,
        164,
        202,
        258,
        246,
        172,
        21,
        213,
        296,
        105,
        51,
        121,
        234,
        257,
        144,
        32,
        146,
        108,
        263,
        251,
        273,
        208,
        50,
        126,
        14,
        260,
        291,
        119,
        283,
        249,
        157,
        184,
        60,
        122,
        109,
        15,
        195,
        210,
        84,
        284
    ],
    "Nb of functions evaluations": 200010,
    "Computational time in seconds": 388.3419020175934,
    "Stopping criterion in evaluations": 200000
}